100
32
6
7
10
12
1
1
12
24
19
15
10
10
9
9
9
28
9
1
12
1
1
18
17
21
3
1
2
5
2
1
1
20
2
4
3
3
1
2
2
2
17
1
4
17
2
3
5
2
3
1
1
6
17
2
2
2
3
1
2
4
4
4
1
4
2
6
3
16
17
4
3
4
1
19
3
6
6
20
4
1
18
2
1
3
1
1
1
1
1
4
2
2
3
2
3
2
1
2
1
2